graphene str #: 12                                                              
1.0
  2.13128850  -1.23050000   0.00000000
  4.26257700   4.92200000   0.00000000
  0.00000000   0.00000000  15.00000000
6 3 3
Cartesian
  1.42085899   0.00000000   0.22856000
  3.55214749   1.23049998   0.22856000
  2.84171799  -0.00000001  -0.22856000
  3.55214751   3.69150001   0.22856000
  2.84171801   2.46100002  -0.22856000
  4.97300651   3.69150000  -0.22856000
  1.42085899   0.00000000   1.32856000
  3.55214749   1.23049998   1.32856000
  2.84171799  -0.00000001  -1.32856000
  3.55214751   3.69150001   2.42856000
  2.84171801   2.46100002  -2.42856000
  4.97300651   3.69150000  -2.42856000
