graphene str #: 3432                                                            
1.0
  6.39386550   1.23050000   0.00000000
 -4.26257700   4.92200000   0.00000000
  0.00000000   0.00000000  15.00000000
14 7 7
Cartesian
 -2.84171799   4.92199999   0.22856000
  3.55214749   1.23050002   0.22856000
 -0.71042949   1.23050001   0.22856000
  3.55214749   3.69149998   0.22856000
 -1.42085899   4.92199998  -0.22856000
  0.71042951   1.23050000  -0.22856000
  0.71042947   3.69150000  -0.22856000
  1.42085903   2.46100000   0.22856000
 -0.71042954   3.69150001   0.22856000
  1.42085899   4.92200000   0.22856000
  4.97300649   1.23050001  -0.22856000
  2.84171804   2.46099999  -0.22856000
 -1.42085899   2.46100002  -0.22856000
  2.84171799   4.92199999  -0.22856000
 -2.84171799   4.92199999   1.32856000
  3.55214749   1.23050002   1.32856000
 -0.71042949   1.23050001   1.32856000
  3.55214749   3.69149998   1.32856000
 -1.42085899   4.92199998  -1.32856000
  0.71042951   1.23050000  -1.32856000
  0.71042947   3.69150000  -1.32856000
  1.42085903   2.46100000   2.42856000
 -0.71042954   3.69150001   2.42856000
  1.42085899   4.92200000   2.42856000
  4.97300649   1.23050001  -2.42856000
  2.84171804   2.46099999  -2.42856000
 -1.42085899   2.46100002  -2.42856000
  2.84171799   4.92199999  -2.42856000
