PURE M graphene str #: 3                                                               
1.0
  2.13128850  -1.23050000   0.00000000
  2.13128850   1.23050000   0.00000000
  0.00000000   0.00000000  15.00000000
2 2
Cartesian
  1.42085899   0.00000000   0.22856000
  2.84171801   0.00000000  -0.22856000
  1.42085899   0.00000000   2.42856000
  2.84171801   0.00000000  -2.42856000
