graphene str #: 2582                                                            
1.0
  4.26257700   0.00000000   0.00000000
 -2.13128850   8.61350000   0.00000000
  0.00000000   0.00000000  15.00000000
14 8 6
Cartesian
  1.42085899   0.00000000   0.22856000
  3.55214749   1.23049998   0.22856000
  1.42085901   2.46100004   0.22856000
 -0.71042949   3.69150001   0.22856000
  1.42085901   4.92199999   0.22856000
  2.84171801   0.00000000  -0.22856000
  0.71042951   1.23049998  -0.22856000
  2.84171799   4.92199999  -0.22856000
 -0.71042949   6.15249996   0.22856000
  1.42085899   7.38300002   0.22856000
  2.84171799   2.46100004  -0.22856000
  0.71042949   3.69150001  -0.22856000
  0.71042949   6.15249996  -0.22856000
 -1.42085899   7.38300002  -0.22856000
  1.42085899   0.00000000   1.32856000
  3.55214749   1.23049998   1.32856000
  1.42085901   2.46100004   1.32856000
 -0.71042949   3.69150001   1.32856000
  1.42085901   4.92199999   1.32856000
  2.84171801   0.00000000  -1.32856000
  0.71042951   1.23049998  -1.32856000
  2.84171799   4.92199999  -1.32856000
 -0.71042949   6.15249996   2.42856000
  1.42085899   7.38300002   2.42856000
  2.84171799   2.46100004  -2.42856000
  0.71042949   3.69150001  -2.42856000
  0.71042949   6.15249996  -2.42856000
 -1.42085899   7.38300002  -2.42856000
