graphene str #: 1041                                                            
1.0
  0.00000000   4.92200000   0.00000000
  0.00000000   0.00000000  15.00000000
  6.39386550   1.23050000   0.00000000
12 7 5
Cartesian
  1.42085899   4.92199998   0.22856000
  3.55214753   1.23050000   0.22856000
  5.68343601   2.46100001   0.22856000
  3.55214753   3.69150000   0.22856000
  4.97300651   1.23050002  -0.22856000
  4.97300651   3.69150002  -0.22856000
  0.71042949   3.69149999  -0.22856000
  1.42085899   2.46099998   0.22856000
  5.68343601   4.92200001   0.22856000
  2.84171797   4.92200000  -0.22856000
  0.71042949   1.23049999  -0.22856000
  2.84171797   2.46100000  -0.22856000
  1.42085899   4.92199998   1.32856000
  3.55214753   1.23050000   1.32856000
  5.68343601   2.46100001   1.32856000
  3.55214753   3.69150000   1.32856000
  4.97300651   1.23050002  -1.32856000
  4.97300651   3.69150002  -1.32856000
  0.71042949   3.69149999  -1.32856000
  1.42085899   2.46099998   2.42856000
  5.68343601   4.92200001   2.42856000
  2.84171797   4.92200000  -2.42856000
  0.71042949   1.23049999  -2.42856000
  2.84171797   2.46100000  -2.42856000
