IBRION=2
ISIF=4
NSW=400
Algo=VeryFast
PREC=Low
EDIFF=5E-4
EDIFFG=5E-4
ISMEAR=0
ISPIN=2
LREAL=Auto
SIGMA=0.1
LWAVE=.TRUE.
LCHARG=.TRUE.
