IBRION= @IBRION
ISIF= @ISIF
POTIM=0.5
NSW=100
Algo=VeryFast
EDIFF=1E-4
ISMEAR=0
ISPIN=@ISPIN
LREAL=Auto
EDIFFG=-1E-2
