graphene str #: 104                                                             
1.0
  4.26257700  -2.46100000   0.00000000
  4.26257700   2.46100000   0.00000000
  0.00000000   0.00000000  15.00000000
8 2 6
Cartesian
  1.42085903   0.00000000   0.22856000
  7.10429497   0.00000000  -0.22856000
  3.55214753   1.23050000   0.22856000
  3.55214753  -1.23050000   0.22856000
  5.68343603   0.00000000   0.22856000
  2.84171797   0.00000000  -0.22856000
  4.97300647   1.23050000  -0.22856000
  4.97300647  -1.23050000  -0.22856000
  1.42085903   0.00000000   1.32856000
  7.10429497   0.00000000  -1.32856000
  3.55214753   1.23050000   2.42856000
  3.55214753  -1.23050000   2.42856000
  5.68343603   0.00000000   2.42856000
  2.84171797   0.00000000  -2.42856000
  4.97300647   1.23050000  -2.42856000
  4.97300647  -1.23050000  -2.42856000
