graphene str #: 1567                                                            
1.0
  2.13128850  -1.23050000   0.00000000
  8.52515400  12.30500000   0.00000000
  0.00000000   0.00000000  15.00000000
14 9 5
Cartesian
  1.42085903   0.00000002   0.22856000
  3.55214749   1.23050000   0.22856000
  3.55214746   3.69149996   0.22856000
  5.68343603   4.92200005   0.22856000
  7.81472449   8.61349998   0.22856000
  2.84171801   2.46100002  -0.22856000
  4.97300649   3.69149999  -0.22856000
  7.10429504   7.38300004  -0.22856000
  9.23558347  11.07449998  -0.22856000
  5.68343601   7.38300001   0.22856000
  7.81472446  11.07449994   0.22856000
  2.84171804   0.00000006  -0.22856000
  4.97300647   6.15249995  -0.22856000
  7.10429501   9.84400000  -0.22856000
  1.42085903   0.00000002   1.32856000
  3.55214749   1.23050000   1.32856000
  3.55214746   3.69149996   1.32856000
  5.68343603   4.92200005   1.32856000
  7.81472449   8.61349998   1.32856000
  2.84171801   2.46100002  -1.32856000
  4.97300649   3.69149999  -1.32856000
  7.10429504   7.38300004  -1.32856000
  9.23558347  11.07449998  -1.32856000
  5.68343601   7.38300001   2.42856000
  7.81472446  11.07449994   2.42856000
  2.84171804   0.00000006  -2.42856000
  4.97300647   6.15249995  -2.42856000
  7.10429501   9.84400000  -2.42856000
