graphene str #: 121                                                             
1.0
  2.13128850  -1.23050000   0.00000000
  6.39386550   8.61350000   0.00000000
  0.00000000   0.00000000  15.00000000
10 7 3
Cartesian
  1.42085903   0.00000002   0.22856000
  3.55214753   1.23050002   0.22856000
  3.55214753   3.69150002   0.22856000
  5.68343603   4.92200002   0.22856000
  2.84171797  -0.00000002  -0.22856000
  4.97300647   3.69149998  -0.22856000
  7.10429497   7.38299998  -0.22856000
  5.68343603   7.38300002   0.22856000
  2.84171797   2.46099998  -0.22856000
  4.97300647   6.15249998  -0.22856000
  1.42085903   0.00000002   1.32856000
  3.55214753   1.23050002   1.32856000
  3.55214753   3.69150002   1.32856000
  5.68343603   4.92200002   1.32856000
  2.84171797  -0.00000002  -1.32856000
  4.97300647   3.69149998  -1.32856000
  7.10429497   7.38299998  -1.32856000
  5.68343603   7.38300002   2.42856000
  2.84171797   2.46099998  -2.42856000
  4.97300647   6.15249998  -2.42856000
