graphene str #: 42                                                              
1.0
  2.13128850  -1.23050000   0.00000000
  4.26257700   7.38300000   0.00000000
  0.00000000   0.00000000  15.00000000
8 5 3
Cartesian
  1.42085899  -0.00000002   0.22856000
  1.42085899   2.46099998   0.22856000
  3.55214749   3.69149998   0.22856000
  2.84171801   4.92200002  -0.22856000
  4.97300651   6.15250002  -0.22856000
  3.55214749   6.15249998   0.22856000
  0.71042951   1.23050002  -0.22856000
  2.84171801   2.46100002  -0.22856000
  1.42085899  -0.00000002   1.32856000
  1.42085899   2.46099998   1.32856000
  3.55214749   3.69149998   1.32856000
  2.84171801   4.92200002  -1.32856000
  4.97300651   6.15250002  -1.32856000
  3.55214749   6.15249998   2.42856000
  0.71042951   1.23050002  -2.42856000
  2.84171801   2.46100002  -2.42856000
