graphene str #: 262                                                             
1.0
  4.26257700   0.00000000   0.00000000
 -2.13128850   6.15250000   0.00000000
  0.00000000   0.00000000  15.00000000
10 4 6
Cartesian
  1.42085899   0.00000000   0.22856000
  3.55214749   1.23050000   0.22856000
  1.42085899   2.46100000   0.22856000
  0.71042951   3.69150000  -0.22856000
 -0.71042951   3.69150000   0.22856000
  1.42085899   4.92200000   0.22856000
  2.84171801   0.00000000  -0.22856000
  0.71042951   1.23050000  -0.22856000
  2.84171801   2.46100000  -0.22856000
 -1.42085899   4.92200000  -0.22856000
  1.42085899   0.00000000   1.32856000
  3.55214749   1.23050000   1.32856000
  1.42085899   2.46100000   1.32856000
  0.71042951   3.69150000  -1.32856000
 -0.71042951   3.69150000   2.42856000
  1.42085899   4.92200000   2.42856000
  2.84171801   0.00000000  -2.42856000
  0.71042951   1.23050000  -2.42856000
  2.84171801   2.46100000  -2.42856000
 -1.42085899   4.92200000  -2.42856000
