graphene str #: 805                                                             
1.0
  4.26257700   0.00000000   0.00000000
  0.00000000   7.38300000   0.00000000
  0.00000000   0.00000000  15.00000000
12 6 6
Cartesian
  1.42085899   0.00000000   0.22856000
  3.55214749   1.23050002   0.22856000
  3.55214749   3.69150000   0.22856000
  1.42085899   4.92200002   0.22856000
  2.84171801   0.00000000  -0.22856000
  2.84171801   4.92200002  -0.22856000
  1.42085899   2.46099998   0.22856000
  3.55214749   6.15249998   0.22856000
  0.71042951   1.23050002  -0.22856000
  2.84171801   2.46099998  -0.22856000
  0.71042951   3.69150000  -0.22856000
  0.71042951   6.15249998  -0.22856000
  1.42085899   0.00000000   1.32856000
  3.55214749   1.23050002   1.32856000
  3.55214749   3.69150000   1.32856000
  1.42085899   4.92200002   1.32856000
  2.84171801   0.00000000  -1.32856000
  2.84171801   4.92200002  -1.32856000
  1.42085899   2.46099998   2.42856000
  3.55214749   6.15249998   2.42856000
  0.71042951   1.23050002  -2.42856000
  2.84171801   2.46099998  -2.42856000
  0.71042951   3.69150000  -2.42856000
  0.71042951   6.15249998  -2.42856000
