graphene str #: 376                                                             
1.0
  2.13128850  -1.23050000   0.00000000
  6.39386550  11.07450000   0.00000000
  0.00000000   0.00000000  15.00000000
12 7 5
Cartesian
  1.42085903   0.00000005   0.22856000
  1.42085899   2.46099998   0.22856000
  3.55214751   3.69150001   0.22856000
  3.55214753   6.15250005   0.22856000
  0.71042949   1.23049999  -0.22856000
  2.84171801   2.46100002  -0.22856000
  4.97300649   6.15249999  -0.22856000
  5.68343599   7.38299998   0.22856000
  5.68343601   9.84400001   0.22856000
  2.84171797   4.92199995  -0.22856000
  4.97300651   8.61350002  -0.22856000
  7.10429497   9.84399995  -0.22856000
  1.42085903   0.00000005   1.32856000
  1.42085899   2.46099998   1.32856000
  3.55214751   3.69150001   1.32856000
  3.55214753   6.15250005   1.32856000
  0.71042949   1.23049999  -1.32856000
  2.84171801   2.46100002  -1.32856000
  4.97300649   6.15249999  -1.32856000
  5.68343599   7.38299998   2.42856000
  5.68343601   9.84400001   2.42856000
  2.84171797   4.92199995  -2.42856000
  4.97300651   8.61350002  -2.42856000
  7.10429497   9.84399995  -2.42856000
