C H W 
1.0 
  8.52516000  -4.92200000   0.00000000  
  8.52516000   4.92200000   0.00000000  
  0.00000000   0.00000000  15.00000000  
32 16 16
Cartesian 
 -2.79713000   0.00000000   0.22856000 
 -1.33168000   0.00000000  -0.22856000 
 -0.66584000   1.23050000   0.22856000 
  0.79961000   1.23050000  -0.22856000 
  1.46545000   2.46100000   0.22856000 
  2.93090000   2.46100000  -0.22856000 
  3.59674000   3.69150000   0.22856000 
  5.06219000   3.69150000  -0.22856000 
 -0.66584000  -1.23050000   0.22856000 
  0.79961000  -1.23050000  -0.22856000 
  1.46545000   0.00000000   0.22856000 
  2.93090000   0.00000000  -0.22856000 
  3.59674000   1.23050000   0.22856000 
  5.06219000   1.23050000  -0.22856000 
  5.72803000   2.46100000   0.22856000 
  7.19348000   2.46100000  -0.22856000 
  1.46545000  -2.46100000   0.22856000 
  2.93090000  -2.46100000  -0.22856000 
  3.59674000  -1.23050000   0.22856000 
  5.06219000  -1.23050000  -0.22856000 
  5.72803000   0.00000000   0.22856000 
  7.19348000   0.00000000  -0.22856000 
  7.85932000   1.23050000   0.22856000 
  9.32477000   1.23050000  -0.22856000 
  3.59674000  -3.69150000   0.22856000 
  5.06219000  -3.69150000  -0.22856000 
  5.72803000  -2.46100000   0.22856000 
  7.19348000  -2.46100000  -0.22856000 
  7.85932000  -1.23050000   0.22856000 
  9.32477000  -1.23050000  -0.22856000 
  9.99061000   0.00000000   0.22856000 
 11.45606000   0.00000000  -0.22856000 
 -2.79713000   0.00000000   1.33850000 
 -0.66584000   1.23050000   1.33850000 
  3.59674000   3.69150000   1.33850000 
 -0.66584000  -1.23050000   1.33850000 
  1.46545000   0.00000000   1.33850000 
  3.59674000   1.23050000   1.33850000 
  5.72803000   2.46100000   1.33850000 
  1.46545000  -2.46100000   1.33850000 
  2.93090000  -2.46100000  -1.33850000 
  7.85932000   1.23050000   1.33850000 
  9.32477000   1.23050000  -1.33850000 
  5.06219000  -3.69150000  -1.33850000 
  7.19348000  -2.46100000  -1.33850000 
  7.85932000  -1.23050000   1.33850000 
  9.99061000   0.00000000   1.33850000 
 11.45606000   0.00000000  -1.33850000 
 -1.33168000   0.00000000  -2.20000000 
  0.79961000   1.23050000  -2.20000000 
  1.46545000   2.46100000   2.20000000 
  2.93090000   2.46100000  -2.20000000 
  5.06219000   3.69150000  -2.20000000 
  0.79961000  -1.23050000  -2.20000000 
  2.93090000   0.00000000  -2.20000000 
  5.06219000   1.23050000  -2.20000000 
  7.19348000   2.46100000  -2.20000000 
  3.59674000  -1.23050000   2.20000000 
  5.06219000  -1.23050000  -2.20000000 
  5.72803000   0.00000000   2.20000000 
  7.19348000   0.00000000  -2.20000000 
  3.59674000  -3.69150000   2.20000000 
  5.72803000  -2.46100000   2.20000000 
  9.32477000  -1.23050000  -2.20000000 
