IBRION= @IBRION
ISIF= @ISIF
NSW=100
Algo=VeryFast
PREC = Accurate
EDIFF=1E-4
ISMEAR=0
ISPIN=@ISPIN
LREAL=Auto
EDIFFG=-1E-2
